p cnf 133 16
c ind 68 69 70 71 73 74 75 76 77 78 0
c ind 82 83 84 85 86 87 88 89 90 91 0
c ind 92 93 94 95 96 97 98 99 100 101 0
c ind 102 103 104 105 106 107 108 109 110 111 0
c ind 112 113 114 115 116 117 118 119 120 121 0
c ind 122 123 124 125 126 127 128 129 130 131 0
c ind 72 79 80 81 1 0
c ret 45 46 47 48 49 50 51 12 52 53 0
c ret 54 55 56 57 58 59 60 61 62 63 0
c ret 64 65 66 67 13 14 5 15 16 17 0
c ret 18 19 6 20 21 22 23 24 25 7 0
c ret 26 27 28 29 30 8 31 32 33 34 0
c ret 9 35 36 37 10 38 39 40 11 41 0
c ret 42 43 44 0
2 3 -4 -80 -81 0
-2 4 0
-2 80 0
-2 81 0
-2 -3 0
3 -8 -15 -16 -17 0
-3 17 0
-3 8 0
-3 16 0
-3 15 0
4 -72 -79 0
-4 72 0
-4 79 0
1 2 0
-1 -2 0
132 0

